<?xml version="1.0" encoding="UTF-8"?><osil xmlns="os.optimizationservices.org" xmlns:xsi="http://www.w3.org/2001/XMLSchema-instance" xsi:schemaLocation="os.optimizationservices.org http://www.optimizationservices.org/schemas/2.0/OSiL.xsd"><instanceHeader><name>ex1222</name></instanceHeader><instanceData><variables numberOfVariables="3"><var name="x1" lb=".2" ub="1"/><var name="x2" lb="-2.22554" ub="-1"/><var name="b3" type="B" ub="1"/></variables><objectives><obj maxOrMin="min" constant="2.05" name="defObj_objvar" numberOfObjCoef="2"><coef idx="0">-5</coef><coef idx="2">-.7</coef></obj></objectives><constraints numberOfConstraints="3"><con name="e1" ub="0"/><con name="e2" ub="-1"/><con name="e3" ub="0"/></constraints><linearConstraintCoefficients numberOfValues="5"><start><el>0</el><el mult="3" incr="2">1</el></start><colIdx><el mult="2">1</el><el>2</el><el>0</el><el>2</el></colIdx><value><el>-1</el><el>1</el><el>1.1</el><el>1</el><el>-1.2</el></value></linearConstraintCoefficients><quadraticCoefficients numberOfQuadraticTerms="1"><qTerm idx="-1" idxOne="0" idxTwo="0" coef="5"/></quadraticCoefficients><nonlinearExpressions numberOfNonlinearExpressions="1"><nl idx="0"><negate><exp><sum><number value="-.2"/><variable idx="0"/></sum></exp></negate></nl></nonlinearExpressions></instanceData></osil>